50, 2187
21, 48
90, 170
168, 384
126, 288
42, 96
27, 51
81, 153
189, 432
36, 68
72, 136
189, 432
63, 119
126, 288
105, 240
90, 170
126, 288
90, 170
81, 153
126, 288
126, 288
42, 96
189, 432
9, 17
27, 51
105, 240
210, 480
105, 240
147, 336
36, 68
36, 68
210, 480
21, 48
72, 136
63, 144
42, 96
9, 17
81, 153
72, 136
21, 48
90, 170
45, 85
63, 119
63, 144
105, 240
36, 68
84, 192
21, 48
168, 384
63, 144
210, 480
